p cnf 420 1221
c inputs: 1 2 3 4 5 6 7 8 9 10 11 12 13
c variables for gates: 14 ... 407
c outputs: 408 409 410 411 412 413 414 415 416 417 418 419 420
c random input: -1 2 -3 -4 5 -6 7 8 -9 -10 -11 12 -13
14 -1 -7 0
-14 1 0
-14 7 0
15 -1 -8 0
-15 1 0
-15 8 0
16 -1 -9 0
-16 1 0
-16 9 0
17 -1 -10 0
-17 1 0
-17 10 0
18 -1 -11 0
-18 1 0
-18 11 0
19 -1 -12 0
-19 1 0
-19 12 0
20 -1 -13 0
-20 1 0
-20 13 0
21 -2 -7 0
-21 2 0
-21 7 0
22 -2 -8 0
-22 2 0
-22 8 0
23 -2 -9 0
-23 2 0
-23 9 0
24 -2 -10 0
-24 2 0
-24 10 0
25 -2 -11 0
-25 2 0
-25 11 0
26 -2 -12 0
-26 2 0
-26 12 0
27 -2 -13 0
-27 2 0
-27 13 0
28 -3 -7 0
-28 3 0
-28 7 0
29 -3 -8 0
-29 3 0
-29 8 0
30 -3 -9 0
-30 3 0
-30 9 0
31 -3 -10 0
-31 3 0
-31 10 0
32 -3 -11 0
-32 3 0
-32 11 0
33 -3 -12 0
-33 3 0
-33 12 0
34 -3 -13 0
-34 3 0
-34 13 0
35 -4 -7 0
-35 4 0
-35 7 0
36 -4 -8 0
-36 4 0
-36 8 0
37 -4 -9 0
-37 4 0
-37 9 0
38 -4 -10 0
-38 4 0
-38 10 0
39 -4 -11 0
-39 4 0
-39 11 0
40 -4 -12 0
-40 4 0
-40 12 0
41 -4 -13 0
-41 4 0
-41 13 0
42 -5 -7 0
-42 5 0
-42 7 0
43 -5 -8 0
-43 5 0
-43 8 0
44 -5 -9 0
-44 5 0
-44 9 0
45 -5 -10 0
-45 5 0
-45 10 0
46 -5 -11 0
-46 5 0
-46 11 0
47 -5 -12 0
-47 5 0
-47 12 0
48 -5 -13 0
-48 5 0
-48 13 0
49 -6 -7 0
-49 6 0
-49 7 0
50 -6 -8 0
-50 6 0
-50 8 0
51 -6 -9 0
-51 6 0
-51 9 0
52 -6 -10 0
-52 6 0
-52 10 0
53 -6 -11 0
-53 6 0
-53 11 0
54 -6 -12 0
-54 6 0
-54 12 0
55 -6 -13 0
-55 6 0
-55 13 0
56 -21 -15 0
-56 21 0
-56 15 0
57 -15 21 0
-57 15 0
-57 -21 0
58 -21 15 0
-58 21 0
-58 -15 0
59 57 58 0
-59 -57 0
-59 -58 0
60 -22 -16 0
-60 22 0
-60 16 0
61 -28 -16 0
-61 28 0
-61 16 0
62 -22 -28 0
-62 22 0
-62 28 0
63 61 62 0
-63 -61 0
-63 -62 0
64 60 -63 0
-64 -60 0
-64 63 0
65 -22 28 0
-65 22 0
-65 -28 0
66 -28 22 0
-66 28 0
-66 -22 0
67 66 65 0
-67 -66 0
-67 -65 0
68 -16 -67 0
-68 16 0
-68 67 0
69 16 67 0
-69 -16 0
-69 -67 0
70 68 69 0
-70 -68 0
-70 -69 0
71 -23 -17 0
-71 23 0
-71 17 0
72 -29 -17 0
-72 29 0
-72 17 0
73 -23 -29 0
-73 23 0
-73 29 0
74 72 73 0
-74 -72 0
-74 -73 0
75 71 -74 0
-75 -71 0
-75 74 0
76 -23 29 0
-76 23 0
-76 -29 0
77 -29 23 0
-77 29 0
-77 -23 0
78 77 76 0
-78 -77 0
-78 -76 0
79 -17 -78 0
-79 17 0
-79 78 0
80 17 78 0
-80 -17 0
-80 -78 0
81 79 80 0
-81 -79 0
-81 -80 0
82 -24 -18 0
-82 24 0
-82 18 0
83 -30 -18 0
-83 30 0
-83 18 0
84 -24 -30 0
-84 24 0
-84 30 0
85 83 84 0
-85 -83 0
-85 -84 0
86 82 -85 0
-86 -82 0
-86 85 0
87 -24 30 0
-87 24 0
-87 -30 0
88 -30 24 0
-88 30 0
-88 -24 0
89 88 87 0
-89 -88 0
-89 -87 0
90 -18 -89 0
-90 18 0
-90 89 0
91 18 89 0
-91 -18 0
-91 -89 0
92 90 91 0
-92 -90 0
-92 -91 0
93 -25 -19 0
-93 25 0
-93 19 0
94 -31 -19 0
-94 31 0
-94 19 0
95 -25 -31 0
-95 25 0
-95 31 0
96 94 95 0
-96 -94 0
-96 -95 0
97 93 -96 0
-97 -93 0
-97 96 0
98 -25 31 0
-98 25 0
-98 -31 0
99 -31 25 0
-99 31 0
-99 -25 0
100 99 98 0
-100 -99 0
-100 -98 0
101 -19 -100 0
-101 19 0
-101 100 0
102 19 100 0
-102 -19 0
-102 -100 0
103 101 102 0
-103 -101 0
-103 -102 0
104 -26 -20 0
-104 26 0
-104 20 0
105 -32 -20 0
-105 32 0
-105 20 0
106 -26 -32 0
-106 26 0
-106 32 0
107 105 106 0
-107 -105 0
-107 -106 0
108 104 -107 0
-108 -104 0
-108 107 0
109 -26 32 0
-109 26 0
-109 -32 0
110 -32 26 0
-110 32 0
-110 -26 0
111 110 109 0
-111 -110 0
-111 -109 0
112 -20 -111 0
-112 20 0
-112 111 0
113 20 111 0
-113 -20 0
-113 -111 0
114 112 113 0
-114 -112 0
-114 -113 0
115 -27 -33 0
-115 27 0
-115 33 0
116 -27 33 0
-116 27 0
-116 -33 0
117 -33 27 0
-117 33 0
-117 -27 0
118 117 116 0
-118 -117 0
-118 -116 0
119 -36 -42 0
-119 36 0
-119 42 0
120 -36 42 0
-120 36 0
-120 -42 0
121 -42 36 0
-121 42 0
-121 -36 0
122 121 120 0
-122 -121 0
-122 -120 0
123 -37 -43 0
-123 37 0
-123 43 0
124 -49 -37 0
-124 49 0
-124 37 0
125 -49 -43 0
-125 49 0
-125 43 0
126 124 125 0
-126 -124 0
-126 -125 0
127 123 -126 0
-127 -123 0
-127 126 0
128 -43 49 0
-128 43 0
-128 -49 0
129 -49 43 0
-129 49 0
-129 -43 0
130 129 128 0
-130 -129 0
-130 -128 0
131 -37 -130 0
-131 37 0
-131 130 0
132 37 130 0
-132 -37 0
-132 -130 0
133 131 132 0
-133 -131 0
-133 -132 0
134 -38 -44 0
-134 38 0
-134 44 0
135 -50 -38 0
-135 50 0
-135 38 0
136 -50 -44 0
-136 50 0
-136 44 0
137 136 135 0
-137 -136 0
-137 -135 0
138 134 -137 0
-138 -134 0
-138 137 0
139 -44 50 0
-139 44 0
-139 -50 0
140 -50 44 0
-140 50 0
-140 -44 0
141 140 139 0
-141 -140 0
-141 -139 0
142 -38 -141 0
-142 38 0
-142 141 0
143 38 141 0
-143 -38 0
-143 -141 0
144 142 143 0
-144 -142 0
-144 -143 0
145 -39 -45 0
-145 39 0
-145 45 0
146 -51 -39 0
-146 51 0
-146 39 0
147 -51 -45 0
-147 51 0
-147 45 0
148 146 147 0
-148 -146 0
-148 -147 0
149 145 -148 0
-149 -145 0
-149 148 0
150 -45 51 0
-150 45 0
-150 -51 0
151 -51 45 0
-151 51 0
-151 -45 0
152 151 150 0
-152 -151 0
-152 -150 0
153 -39 -152 0
-153 39 0
-153 152 0
154 39 152 0
-154 -39 0
-154 -152 0
155 153 154 0
-155 -153 0
-155 -154 0
156 -40 -46 0
-156 40 0
-156 46 0
157 -52 -40 0
-157 52 0
-157 40 0
158 -52 -46 0
-158 52 0
-158 46 0
159 158 157 0
-159 -158 0
-159 -157 0
160 156 -159 0
-160 -156 0
-160 159 0
161 -46 52 0
-161 46 0
-161 -52 0
162 -52 46 0
-162 52 0
-162 -46 0
163 162 161 0
-163 -162 0
-163 -161 0
164 -40 -163 0
-164 40 0
-164 163 0
165 40 163 0
-165 -40 0
-165 -163 0
166 164 165 0
-166 -164 0
-166 -165 0
167 -41 -47 0
-167 41 0
-167 47 0
168 -53 -41 0
-168 53 0
-168 41 0
169 -53 -47 0
-169 53 0
-169 47 0
170 169 168 0
-170 -169 0
-170 -168 0
171 167 -170 0
-171 -167 0
-171 170 0
172 -47 53 0
-172 47 0
-172 -53 0
173 -53 47 0
-173 53 0
-173 -47 0
174 173 172 0
-174 -173 0
-174 -172 0
175 -41 -174 0
-175 41 0
-175 174 0
176 41 174 0
-176 -41 0
-176 -174 0
177 175 176 0
-177 -175 0
-177 -176 0
178 -54 -48 0
-178 54 0
-178 48 0
179 -48 54 0
-179 48 0
-179 -54 0
180 -54 48 0
-180 54 0
-180 -48 0
181 180 179 0
-181 -180 0
-181 -179 0
182 -56 70 0
-182 56 0
-182 -70 0
183 56 70 0
-183 -56 0
-183 -70 0
184 -56 -70 0
-184 56 0
-184 70 0
185 184 183 0
-185 -184 0
-185 -183 0
186 64 81 0
-186 -64 0
-186 -81 0
187 -35 81 0
-187 35 0
-187 -81 0
188 -35 64 0
-188 35 0
-188 -64 0
189 188 187 0
-189 -188 0
-189 -187 0
190 -189 186 0
-190 189 0
-190 -186 0
191 35 64 0
-191 -35 0
-191 -64 0
192 -35 -64 0
-192 35 0
-192 64 0
193 192 191 0
-193 -192 0
-193 -191 0
194 81 -193 0
-194 -81 0
-194 193 0
195 -81 193 0
-195 81 0
-195 -193 0
196 195 194 0
-196 -195 0
-196 -194 0
197 75 92 0
-197 -75 0
-197 -92 0
198 122 92 0
-198 -122 0
-198 -92 0
199 122 75 0
-199 -122 0
-199 -75 0
200 199 198 0
-200 -199 0
-200 -198 0
201 197 -200 0
-201 -197 0
-201 200 0
202 -122 75 0
-202 122 0
-202 -75 0
203 122 -75 0
-203 -122 0
-203 75 0
204 202 203 0
-204 -202 0
-204 -203 0
205 92 -204 0
-205 -92 0
-205 204 0
206 -92 204 0
-206 92 0
-206 -204 0
207 206 205 0
-207 -206 0
-207 -205 0
208 86 103 0
-208 -86 0
-208 -103 0
209 133 103 0
-209 -133 0
-209 -103 0
210 86 133 0
-210 -86 0
-210 -133 0
211 210 209 0
-211 -210 0
-211 -209 0
212 208 -211 0
-212 -208 0
-212 211 0
213 86 -133 0
-213 -86 0
-213 133 0
214 -86 133 0
-214 86 0
-214 -133 0
215 213 214 0
-215 -213 0
-215 -214 0
216 103 -215 0
-216 -103 0
-216 215 0
217 -103 215 0
-217 103 0
-217 -215 0
218 217 216 0
-218 -217 0
-218 -216 0
219 97 114 0
-219 -97 0
-219 -114 0
220 144 114 0
-220 -144 0
-220 -114 0
221 97 144 0
-221 -97 0
-221 -144 0
222 221 220 0
-222 -221 0
-222 -220 0
223 219 -222 0
-223 -219 0
-223 222 0
224 97 -144 0
-224 -97 0
-224 144 0
225 -97 144 0
-225 97 0
-225 -144 0
226 224 225 0
-226 -224 0
-226 -225 0
227 114 -226 0
-227 -114 0
-227 226 0
228 -114 226 0
-228 114 0
-228 -226 0
229 228 227 0
-229 -228 0
-229 -227 0
230 118 108 0
-230 -118 0
-230 -108 0
231 118 155 0
-231 -118 0
-231 -155 0
232 108 155 0
-232 -108 0
-232 -155 0
233 231 232 0
-233 -231 0
-233 -232 0
234 230 -233 0
-234 -230 0
-234 233 0
235 108 -155 0
-235 -108 0
-235 155 0
236 -108 155 0
-236 108 0
-236 -155 0
237 235 236 0
-237 -235 0
-237 -236 0
238 118 -237 0
-238 -118 0
-238 237 0
239 -118 237 0
-239 118 0
-239 -237 0
240 239 238 0
-240 -239 0
-240 -238 0
241 -34 -115 0
-241 34 0
-241 115 0
242 -34 166 0
-242 34 0
-242 -166 0
243 -115 166 0
-243 115 0
-243 -166 0
244 242 243 0
-244 -242 0
-244 -243 0
245 241 -244 0
-245 -241 0
-245 244 0
246 -115 -166 0
-246 115 0
-246 166 0
247 115 166 0
-247 -115 0
-247 -166 0
248 246 247 0
-248 -246 0
-248 -247 0
249 -34 -248 0
-249 34 0
-249 248 0
250 34 248 0
-250 -34 0
-250 -248 0
251 249 250 0
-251 -249 0
-251 -250 0
252 -182 196 0
-252 182 0
-252 -196 0
253 182 196 0
-253 -182 0
-253 -196 0
254 -182 -196 0
-254 182 0
-254 196 0
255 254 253 0
-255 -254 0
-255 -253 0
256 190 207 0
-256 -190 0
-256 -207 0
257 -190 207 0
-257 190 0
-257 -207 0
258 190 -207 0
-258 -190 0
-258 207 0
259 257 258 0
-259 -257 0
-259 -258 0
260 201 218 0
-260 -201 0
-260 -218 0
261 -119 218 0
-261 119 0
-261 -218 0
262 -119 201 0
-262 119 0
-262 -201 0
263 262 261 0
-263 -262 0
-263 -261 0
264 260 -263 0
-264 -260 0
-264 263 0
265 119 201 0
-265 -119 0
-265 -201 0
266 -119 -201 0
-266 119 0
-266 201 0
267 265 266 0
-267 -265 0
-267 -266 0
268 218 -267 0
-268 -218 0
-268 267 0
269 -218 267 0
-269 218 0
-269 -267 0
270 269 268 0
-270 -269 0
-270 -268 0
271 229 212 0
-271 -229 0
-271 -212 0
272 127 229 0
-272 -127 0
-272 -229 0
273 127 212 0
-273 -127 0
-273 -212 0
274 272 273 0
-274 -272 0
-274 -273 0
275 -274 271 0
-275 274 0
-275 -271 0
276 -127 212 0
-276 127 0
-276 -212 0
277 127 -212 0
-277 -127 0
-277 212 0
278 276 277 0
-278 -276 0
-278 -277 0
279 -278 229 0
-279 278 0
-279 -229 0
280 278 -229 0
-280 -278 0
-280 229 0
281 279 280 0
-281 -279 0
-281 -280 0
282 240 223 0
-282 -240 0
-282 -223 0
283 138 240 0
-283 -138 0
-283 -240 0
284 138 223 0
-284 -138 0
-284 -223 0
285 284 283 0
-285 -284 0
-285 -283 0
286 282 -285 0
-286 -282 0
-286 285 0
287 -138 223 0
-287 138 0
-287 -223 0
288 138 -223 0
-288 -138 0
-288 223 0
289 287 288 0
-289 -287 0
-289 -288 0
290 -289 240 0
-290 289 0
-290 -240 0
291 289 -240 0
-291 -289 0
-291 240 0
292 291 290 0
-292 -291 0
-292 -290 0
293 251 234 0
-293 -251 0
-293 -234 0
294 149 251 0
-294 -149 0
-294 -251 0
295 149 234 0
-295 -149 0
-295 -234 0
296 294 295 0
-296 -294 0
-296 -295 0
297 293 -296 0
-297 -293 0
-297 296 0
298 -149 234 0
-298 149 0
-298 -234 0
299 149 -234 0
-299 -149 0
-299 234 0
300 299 298 0
-300 -299 0
-300 -298 0
301 251 -300 0
-301 -251 0
-301 300 0
302 -251 300 0
-302 251 0
-302 -300 0
303 301 302 0
-303 -301 0
-303 -302 0
304 177 245 0
-304 -177 0
-304 -245 0
305 160 177 0
-305 -160 0
-305 -177 0
306 160 245 0
-306 -160 0
-306 -245 0
307 306 305 0
-307 -306 0
-307 -305 0
308 -307 304 0
-308 307 0
-308 -304 0
309 -160 245 0
-309 160 0
-309 -245 0
310 160 -245 0
-310 -160 0
-310 245 0
311 309 310 0
-311 -309 0
-311 -310 0
312 177 -311 0
-312 -177 0
-312 311 0
313 -177 311 0
-313 177 0
-313 -311 0
314 312 313 0
-314 -312 0
-314 -313 0
315 181 171 0
-315 -181 0
-315 -171 0
316 181 -171 0
-316 -181 0
-316 171 0
317 -181 171 0
-317 181 0
-317 -171 0
318 317 316 0
-318 -317 0
-318 -316 0
319 -55 -178 0
-319 55 0
-319 178 0
320 -55 178 0
-320 55 0
-320 -178 0
321 55 -178 0
-321 -55 0
-321 178 0
322 321 320 0
-322 -321 0
-322 -320 0
323 259 252 0
-323 -259 0
-323 -252 0
324 -259 -252 0
-324 259 0
-324 252 0
325 324 323 0
-325 -324 0
-325 -323 0
326 259 -252 0
-326 -259 0
-326 252 0
327 256 270 0
-327 -256 0
-327 -270 0
328 -256 -270 0
-328 256 0
-328 270 0
329 328 327 0
-329 -328 0
-329 -327 0
330 -329 -326 0
-330 329 0
-330 326 0
331 329 326 0
-331 -329 0
-331 -326 0
332 331 330 0
-332 -331 0
-332 -330 0
333 270 -326 0
-333 -270 0
-333 326 0
334 -256 -326 0
-334 256 0
-334 326 0
335 -256 270 0
-335 256 0
-335 -270 0
336 335 334 0
-336 -335 0
-336 -334 0
337 333 -336 0
-337 -333 0
-337 336 0
338 281 -264 0
-338 -281 0
-338 264 0
339 -281 264 0
-339 281 0
-339 -264 0
340 338 339 0
-340 -338 0
-340 -339 0
341 337 -340 0
-341 -337 0
-341 340 0
342 -337 340 0
-342 337 0
-342 -340 0
343 341 342 0
-343 -341 0
-343 -342 0
344 281 337 0
-344 -281 0
-344 -337 0
345 264 337 0
-345 -264 0
-345 -337 0
346 281 264 0
-346 -281 0
-346 -264 0
347 345 346 0
-347 -345 0
-347 -346 0
348 -347 344 0
-348 347 0
-348 -344 0
349 292 -275 0
-349 -292 0
-349 275 0
350 -292 275 0
-350 292 0
-350 -275 0
351 350 349 0
-351 -350 0
-351 -349 0
352 348 -351 0
-352 -348 0
-352 351 0
353 -348 351 0
-353 348 0
-353 -351 0
354 353 352 0
-354 -353 0
-354 -352 0
355 292 348 0
-355 -292 0
-355 -348 0
356 275 348 0
-356 -275 0
-356 -348 0
357 292 275 0
-357 -292 0
-357 -275 0
358 357 356 0
-358 -357 0
-358 -356 0
359 355 -358 0
-359 -355 0
-359 358 0
360 -286 303 0
-360 286 0
-360 -303 0
361 286 -303 0
-361 -286 0
-361 303 0
362 361 360 0
-362 -361 0
-362 -360 0
363 -362 359 0
-363 362 0
-363 -359 0
364 362 -359 0
-364 -362 0
-364 359 0
365 363 364 0
-365 -363 0
-365 -364 0
366 359 303 0
-366 -359 0
-366 -303 0
367 359 286 0
-367 -359 0
-367 -286 0
368 286 303 0
-368 -286 0
-368 -303 0
369 368 367 0
-369 -368 0
-369 -367 0
370 -369 366 0
-370 369 0
-370 -366 0
371 314 -297 0
-371 -314 0
-371 297 0
372 -314 297 0
-372 314 0
-372 -297 0
373 371 372 0
-373 -371 0
-373 -372 0
374 -373 370 0
-374 373 0
-374 -370 0
375 373 -370 0
-375 -373 0
-375 370 0
376 374 375 0
-376 -374 0
-376 -375 0
377 370 314 0
-377 -370 0
-377 -314 0
378 370 297 0
-378 -370 0
-378 -297 0
379 314 297 0
-379 -314 0
-379 -297 0
380 379 378 0
-380 -379 0
-380 -378 0
381 -380 377 0
-381 380 0
-381 -377 0
382 -308 318 0
-382 308 0
-382 -318 0
383 308 -318 0
-383 -308 0
-383 318 0
384 383 382 0
-384 -383 0
-384 -382 0
385 381 -384 0
-385 -381 0
-385 384 0
386 -381 384 0
-386 381 0
-386 -384 0
387 386 385 0
-387 -386 0
-387 -385 0
388 381 318 0
-388 -381 0
-388 -318 0
389 381 308 0
-389 -381 0
-389 -308 0
390 308 318 0
-390 -308 0
-390 -318 0
391 390 389 0
-391 -390 0
-391 -389 0
392 388 -391 0
-392 -388 0
-392 391 0
393 322 315 0
-393 -322 0
-393 -315 0
394 -322 -315 0
-394 322 0
-394 315 0
395 393 394 0
-395 -393 0
-395 -394 0
396 -395 392 0
-396 395 0
-396 -392 0
397 395 -392 0
-397 -395 0
-397 392 0
398 397 396 0
-398 -397 0
-398 -396 0
399 322 392 0
-399 -322 0
-399 -392 0
400 -315 392 0
-400 315 0
-400 -392 0
401 322 -315 0
-401 -322 0
-401 315 0
402 401 400 0
-402 -401 0
-402 -400 0
403 399 -402 0
-403 -399 0
-403 402 0
404 319 403 0
-404 -319 0
-404 -403 0
405 -319 -403 0
-405 319 0
-405 403 0
406 404 405 0
-406 -404 0
-406 -405 0
407 -319 403 0
-407 319 0
-407 -403 0
-408 14 0
408 -14 0
-409 -59 0
409 59 0
-410 -185 0
410 185 0
-411 -255 0
411 255 0
-412 -325 0
412 325 0
-413 -332 0
413 332 0
-414 -343 0
414 343 0
-415 -354 0
415 354 0
-416 -365 0
416 365 0
-417 -376 0
417 376 0
-418 -387 0
418 387 0
-419 -398 0
419 398 0
-420 -406 0
420 406 0
-408 0
409 0
410 0
-411 0
412 0
413 0
414 0
-415 0
-416 0
417 0
-418 0
-419 0
-420 0
